c A SAT instance generated from a 3-CNF formula that had 24 clauses and 11 variables
p cnf 11 24
7 -11 9 0
-3 5 -4 0
-9 5 -7 0
4 5 8 0
-8 -7 4 0
-6 8 -9 0
-1 3 4 0
-4 8 -10 0
7 -5 10 0
8 9 -4 0
-2 10 -4 0
-9 5 3 0
3 9 10 0
7 -3 5 0
-5 3 9 0
-2 -11 5 0
-2 -11 -1 0
11 10 -7 0
-10 -4 -5 0
-8 -4 -11 0
10 -7 8 0
-2 -9 -5 0
-6 5 10 0
-1 7 5 0
